(set-logic QF_SLIA)
(set-option :produce-models true)
(declare-const X String)
; ^[0-9]*$
(assert (str.in_re X (re.++ (re.* (re.range "0" "9")) (str.to_re "\u{0a}"))))
; ^[-+]?(\d?\d?\d?,?)?(\d{3}\,?)*(\.\d{1,2})?$
(assert (not (str.in_re X (re.++ (re.opt (re.union (str.to_re "-") (str.to_re "+"))) (re.opt (re.++ (re.opt (re.range "0" "9")) (re.opt (re.range "0" "9")) (re.opt (re.range "0" "9")) (re.opt (str.to_re ",")))) (re.* (re.++ ((_ re.loop 3 3) (re.range "0" "9")) (re.opt (str.to_re ",")))) (re.opt (re.++ (str.to_re ".") ((_ re.loop 1 2) (re.range "0" "9")))) (str.to_re "\u{0a}")))))
; (\w+),[^(]+\((\w+)\)\s+(\d+)\s+(\w+)\s+(\d+)\s+(\d+)\s+(\d+)\s+(\d+)
(assert (not (str.in_re X (re.++ (re.+ (re.union (re.range "0" "9") (re.range "A" "Z") (re.range "a" "z") (str.to_re "_"))) (str.to_re ",") (re.+ (re.comp (str.to_re "("))) (str.to_re "(") (re.+ (re.union (re.range "0" "9") (re.range "A" "Z") (re.range "a" "z") (str.to_re "_"))) (str.to_re ")") (re.+ (re.union (str.to_re " ") (str.to_re "\u{09}") (str.to_re "\u{0a}") (str.to_re "\u{0c}") (str.to_re "\u{0d}"))) (re.+ (re.range "0" "9")) (re.+ (re.union (str.to_re " ") (str.to_re "\u{09}") (str.to_re "\u{0a}") (str.to_re "\u{0c}") (str.to_re "\u{0d}"))) (re.+ (re.union (re.range "0" "9") (re.range "A" "Z") (re.range "a" "z") (str.to_re "_"))) (re.+ (re.union (str.to_re " ") (str.to_re "\u{09}") (str.to_re "\u{0a}") (str.to_re "\u{0c}") (str.to_re "\u{0d}"))) (re.+ (re.range "0" "9")) (re.+ (re.union (str.to_re " ") (str.to_re "\u{09}") (str.to_re "\u{0a}") (str.to_re "\u{0c}") (str.to_re "\u{0d}"))) (re.+ (re.range "0" "9")) (re.+ (re.union (str.to_re " ") (str.to_re "\u{09}") (str.to_re "\u{0a}") (str.to_re "\u{0c}") (str.to_re "\u{0d}"))) (re.+ (re.range "0" "9")) (re.+ (re.union (str.to_re " ") (str.to_re "\u{09}") (str.to_re "\u{0a}") (str.to_re "\u{0c}") (str.to_re "\u{0d}"))) (re.+ (re.range "0" "9")) (str.to_re "\u{0a}")))))
(check-sat)
